Clp0006I 0  Obj 0 Primal inf 1999.9998 (2000) Dual inf 27498261 (1000000)
Clp0006I 200  Obj -22202571 Primal inf 1622452 (2000)
Clp0006I 400  Obj -16717908 Primal inf 1229395 (2000)
Clp0006I 600  Obj -11239198 Primal inf 839527 (2000)
Clp0006I 800  Obj -5762842 Primal inf 453937 (2000)
Clp0006I 1000  Obj -304324 Primal inf 91081 (1999)
Clp0006I 1200  Obj -73175 Primal inf 60570 (1993)
Clp0006I 1400  Obj -64307 Primal inf 61999 (1990)
Clp0006I 1514  Obj -61520 Primal inf 69195 (1987)
Clp0006I 1623  Obj -61520 Primal inf 202758 (1986)
Clp0006I 1736  Obj -61520 Primal inf 210655 (1985)
Clp0006I 1861  Obj -61520 Primal inf 261221 (1986)
Clp0006I 2002  Obj -61520 Primal inf 189615 (1984)
Clp0006I 2147  Obj -61520 Primal inf 246084 (1985)
Clp0006I 2296  Obj -61520 Primal inf 271451 (1986)
Clp0006I 2443  Obj -61520 Primal inf 243015 (1986)
Clp0006I 2592  Obj -61520 Primal inf 288101 (1986)
Clp0006I 2739  Obj -61520 Primal inf 249993 (1986)
Clp0006I 2887  Obj -61520 Primal inf 313322 (1986)
Clp0006I 3036  Obj -61520 Primal inf 275107 (1987)
Clp0006I 3192  Obj -61520 Primal inf 277614 (1986)
Clp0006I 3342  Obj -61520 Primal inf 297174 (1985)
Clp0006I 3494  Obj -61520 Primal inf 332837 (1983)
Clp0006I 3638  Obj -61520 Primal inf 322291 (1983)
Clp0006I 3788  Obj -61520 Primal inf 313919 (1984)
Clp0006I 3950  Obj -61520 Primal inf 236986 (1982)
Clp0006I 4106  Obj -61520 Primal inf 334098 (1980)
Clp0006I 4264  Obj -61520 Primal inf 236576 (1979)
Clp0006I 4422  Obj -61520 Primal inf 232221 (1978)
Clp0006I 4581  Obj -61520 Primal inf 219069 (1979)
Clp0006I 4737  Obj -61520 Primal inf 297125 (1981)
Clp0006I 4898  Obj -61520 Primal inf 345700 (1984)
Clp0006I 5050  Obj -61520 Primal inf 297482 (1981)
Clp0006I 5189  Obj -61520 Primal inf 267687 (1985)
Clp0006I 5349  Obj -61520 Primal inf 267172 (1984)
Clp0006I 5511  Obj -61520 Primal inf 272099 (1985)
Clp0006I 5663  Obj -61520 Primal inf 282776 (1984)
Clp0006I 5818  Obj -61520 Primal inf 219869 (1983)
Clp0006I 5966  Obj -61520 Primal inf 257044 (1982)
Clp0006I 6105  Obj -61520 Primal inf 268000 (1984)
Clp0006I 6260  Obj -61520 Primal inf 280089 (1983)
Clp0006I 6403  Obj -61520 Primal inf 298570 (1982)
Clp0006I 6555  Obj -61520 Primal inf 235511 (1982)
Clp0006I 6720  Obj -61520 Primal inf 315684 (1980)
Clp0006I 6879  Obj -61520 Primal inf 350775 (1979)
Clp0006I 7035  Obj -61520 Primal inf 349678 (1977)
Clp0006I 7205  Obj -61520 Primal inf 270932 (1975)
Clp0006I 7371  Obj -61520 Primal inf 206878 (1973)
Clp0006I 7546  Obj -61520 Primal inf 298162 (1978)
Clp0006I 7703  Obj -61520 Primal inf 166687 (1977)
Clp0006I 7870  Obj -61520 Primal inf 244045 (1978)
Clp0006I 8043  Obj -61520 Primal inf 239244 (1981)
Clp0006I 8211  Obj -61520 Primal inf 214475 (1980)
Clp0006I 8360  Obj -61520 Primal inf 217620 (1980)

TIME LIMIT REACHED!
real 1m24,306s user 1m23,704s sys 0m0,504s
